NAME: instance_245
TYPE: TSP
DIMENSION: 20
EDGE_WEIGHT_TYPE: EUC_2D
NODE_COORD_SECTION
0 11.28 38.91
1 86.69 9.03
2 91.25 8.40
3 88.42 43.62
4 13.73 56.48
5 82.78 39.69
6 44.43 65.16
7 25.61 42.67
8 52.42 56.94
9 34.35 62.65
10 20.22 68.50
11 27.29 90.12
12 54.52 61.01
13 1.64 67.77
14 36.99 52.20
15 40.56 54.33
16 4.30 10.39
17 80.66 59.09
18 97.98 13.04
19 12.90 19.89
EOF
